
        $ From http://www.csplib.org/Problems/prob009/data/helmut.pdf
        $ Problem number 77
        $ Sequence length : 25
        language ESSENCE' 1.0
        letting sizemaster be 308
        letting sizes be sequence(1,5,6,7,8,9,13,16,19,28,33,36,38,43,45,48,70,71,73,84,86,102,104,120,133)
        